Maximize
  - 39 x0 - 45 x1 - 2 x2 - x3 - 45 x4 - 34 x5 - 18 x6 + 20 x7 + 16 x8
   - 42 x9 - 20 x10 + 0 x11 - 38 x12 + 35 x13 + 2 x14 - 42 x15 - 17 x16
   + 40 x17 + 23 x18 + 47 x19 - 25 x20 - 40 x21 - 33 x22 + 25 x23 - 47 x24
   - 42 x25 + 33 x26 - 25 x27 - 14 x28 + 17 x29 - 7 x30 - 44 x31 - 21 x32
   + 23 x33 + 39 x34 - 16 x35 + 7 x36 + 21 x37 + 48 x38 + 37 x39 + [
   3 x0 ^2 - 34 x0 * x1 - 14 x0 * x2 + 48 x0 * x3 - 82 x0 * x4 + 44 x0 * x6
   - 44 x0 * x7 - 18 x0 * x8 - 12 x0 * x9 + 26 x0 * x10 + 2 x0 * x12
   + 70 x0 * x13 - 32 x0 * x14 - 50 x0 * x15 - 10 x0 * x16 + 94 x0 * x17
   - 96 x0 * x18 + 18 x0 * x19 + 44 x0 * x20 - 2 x0 * x21 - 94 x0 * x22
   - 42 x0 * x23 + 64 x0 * x24 - 98 x0 * x25 + 10 x0 * x26 + 20 x0 * x27
   + 54 x0 * x28 + 44 x0 * x29 - 42 x0 * x30 - 24 x0 * x31 - 84 x0 * x32
   + 4 x0 * x33 + 26 x0 * x34 + 70 x0 * x35 - 94 x0 * x36 - 8 x0 * x37
   + 98 x0 * x38 + 42 x0 * x39 + 39 x1 ^2 + 42 x1 * x2 + 32 x1 * x3
   - 50 x1 * x4 + 82 x1 * x5 - 22 x1 * x6 - 92 x1 * x7 - 48 x1 * x8
   - 36 x1 * x9 + 62 x1 * x10 - 26 x1 * x11 - 34 x1 * x12 + 14 x1 * x13
   + 54 x1 * x14 - 74 x1 * x15 + 30 x1 * x16 + 82 x1 * x17 - 22 x1 * x18
   - 22 x1 * x19 - 54 x1 * x20 - 20 x1 * x21 + 12 x1 * x22 - 70 x1 * x23
   + 70 x1 * x24 - 88 x1 * x25 - 12 x1 * x27 + 38 x1 * x28 - 38 x1 * x29
   + 56 x1 * x30 - 4 x1 * x31 - 96 x1 * x32 + 14 x1 * x33 - 54 x1 * x34
   - 4 x1 * x35 - 72 x1 * x36 + 70 x1 * x37 + 8 x1 * x38 + 42 x1 * x39
   + 46 x2 ^2 - 52 x2 * x3 - 76 x2 * x4 + 88 x2 * x5 + 2 x2 * x6
   + 30 x2 * x7 - 82 x2 * x8 + 30 x2 * x9 - 32 x2 * x10 - 58 x2 * x11
   + 84 x2 * x12 + 46 x2 * x13 + 70 x2 * x14 - 40 x2 * x15 + 80 x2 * x16
   + 12 x2 * x17 + 46 x2 * x18 - 98 x2 * x19 + 18 x2 * x20 + 92 x2 * x21
   + 72 x2 * x22 - 88 x2 * x23 + 36 x2 * x24 - 6 x2 * x25 + 40 x2 * x26
   + 48 x2 * x27 + 66 x2 * x28 + 94 x2 * x29 - 46 x2 * x30 + 80 x2 * x31
   + 94 x2 * x32 - 50 x2 * x33 - 24 x2 * x34 - 68 x2 * x35 - 50 x2 * x36
   - 10 x2 * x37 + 76 x2 * x38 + 82 x2 * x39 + 39 x3 ^2 + 66 x3 * x4
   - 94 x3 * x5 + 62 x3 * x6 - 76 x3 * x7 + 46 x3 * x8 + 24 x3 * x9
   - 32 x3 * x10 - 76 x3 * x11 - 72 x3 * x12 + 24 x3 * x13 + 82 x3 * x14
   - 14 x3 * x15 + 46 x3 * x16 - 92 x3 * x17 - 36 x3 * x18 - 96 x3 * x19
   + 76 x3 * x20 - 16 x3 * x21 + 10 x3 * x22 + 16 x3 * x23 - 78 x3 * x24
   - 86 x3 * x25 + 30 x3 * x26 + 68 x3 * x27 + 48 x3 * x28 + 10 x3 * x29
   - 38 x3 * x30 + 80 x3 * x31 + 60 x3 * x32 + 22 x3 * x33 + 72 x3 * x34
   + 18 x3 * x35 + 94 x3 * x36 + 50 x3 * x37 - 96 x3 * x38 - 50 x3 * x39
   + 12 x4 ^2 + 92 x4 * x6 - 56 x4 * x7 - 82 x4 * x8 - 50 x4 * x9
   + 16 x4 * x10 + 76 x4 * x11 + 22 x4 * x12 + 40 x4 * x13 - 36 x4 * x14
   + 50 x4 * x15 + 94 x4 * x16 - 76 x4 * x17 + 26 x4 * x18 - 66 x4 * x19
   + 80 x4 * x20 + 62 x4 * x21 + 64 x4 * x22 + 18 x4 * x23 + 38 x4 * x24
   + 54 x4 * x25 + 10 x4 * x26 + 74 x4 * x27 - 72 x4 * x28 + 82 x4 * x29
   - 22 x4 * x30 - 16 x4 * x31 - 90 x4 * x32 - 8 x4 * x33 - 34 x4 * x34
   + 56 x4 * x35 + 50 x4 * x36 + 40 x4 * x37 + 36 x4 * x38 - 34 x4 * x39
   + 22 x5 ^2 - 88 x5 * x6 - 42 x5 * x7 + 18 x5 * x8 + 44 x5 * x9
   + 90 x5 * x10 + 12 x5 * x11 - 72 x5 * x12 - 4 x5 * x13 - 48 x5 * x14
   - 66 x5 * x15 + 80 x5 * x16 - 48 x5 * x17 - 14 x5 * x18 - 10 x5 * x19
   - 90 x5 * x20 + 66 x5 * x21 - 70 x5 * x22 - 40 x5 * x23 + 86 x5 * x24
   + 84 x5 * x25 - 12 x5 * x26 - 74 x5 * x27 - 38 x5 * x28 - 74 x5 * x29
   + 86 x5 * x30 + 44 x5 * x31 - 98 x5 * x32 + 20 x5 * x33 - 18 x5 * x34
   - 42 x5 * x35 - 18 x5 * x36 - 2 x5 * x37 - 4 x5 * x38 + 76 x5 * x39
   - 4 x6 ^2 - 94 x6 * x7 + 72 x6 * x8 - 82 x6 * x9 - 20 x6 * x10
   - 94 x6 * x11 - 40 x6 * x12 - 24 x6 * x13 + 50 x6 * x14 + 6 x6 * x15
   + 24 x6 * x16 + 82 x6 * x17 - 54 x6 * x18 + 64 x6 * x19 - 88 x6 * x20
   + 46 x6 * x21 - 70 x6 * x22 + 68 x6 * x23 - 68 x6 * x24 + 54 x6 * x25
   + 80 x6 * x26 - 94 x6 * x27 - 10 x6 * x28 + 80 x6 * x29 - 84 x6 * x30
   + 84 x6 * x31 - 64 x6 * x32 - 56 x6 * x33 + 80 x6 * x34 + 2 x6 * x35
   - 52 x6 * x36 - 94 x6 * x37 + 18 x6 * x38 - 25 x7 ^2 - 82 x7 * x8
   - 32 x7 * x9 - 8 x7 * x10 - 40 x7 * x11 + 10 x7 * x12 + 52 x7 * x13
   - 44 x7 * x14 + 58 x7 * x15 + 76 x7 * x16 + 74 x7 * x17 - 14 x7 * x18
   + 40 x7 * x19 - 88 x7 * x20 - 6 x7 * x21 - 98 x7 * x22 + 90 x7 * x23
   - 36 x7 * x24 + 66 x7 * x25 - 98 x7 * x26 - 24 x7 * x27 + 76 x7 * x28
   - 68 x7 * x29 + 42 x7 * x30 - 6 x7 * x31 - 30 x7 * x32 - 14 x7 * x33
   + 12 x7 * x34 - 16 x7 * x35 + 20 x7 * x36 - 38 x7 * x37 - 52 x7 * x38
   + 4 x7 * x39 + x8 ^2 - 18 x8 * x9 + 70 x8 * x10 + 32 x8 * x11
   - 20 x8 * x12 - 30 x8 * x13 + 90 x8 * x14 - 52 x8 * x15 - 78 x8 * x16
   + 14 x8 * x17 + 60 x8 * x18 - 40 x8 * x19 + 20 x8 * x20 - 70 x8 * x21
   - 50 x8 * x22 - 2 x8 * x23 + 20 x8 * x24 - 76 x8 * x25 + 42 x8 * x26
   - 38 x8 * x27 + 26 x8 * x28 + 10 x8 * x29 + 42 x8 * x30 + 60 x8 * x31
   - 84 x8 * x32 - 44 x8 * x33 + 50 x8 * x34 + 70 x8 * x35 - 64 x8 * x36
   + 58 x8 * x37 + 80 x8 * x38 + 20 x8 * x39 + 40 x9 ^2 - 60 x9 * x10
   - 68 x9 * x11 + 62 x9 * x12 - 36 x9 * x13 - 54 x9 * x14 - 4 x9 * x15
   + 56 x9 * x16 + 58 x9 * x17 - 94 x9 * x18 - 82 x9 * x19 + 48 x9 * x20
   + 12 x9 * x21 - 28 x9 * x22 - 40 x9 * x23 + 56 x9 * x24 - 24 x9 * x25
   - 28 x9 * x26 - 18 x9 * x27 - 14 x9 * x28 + 32 x9 * x29 + 96 x9 * x30
   + 64 x9 * x31 - 76 x9 * x32 - 32 x9 * x33 - 24 x9 * x34 - 96 x9 * x35
   - 24 x9 * x36 - 90 x9 * x37 - 22 x9 * x38 + 44 x9 * x39 + 34 x10 ^2
   + 72 x10 * x11 + 4 x10 * x12 + 88 x10 * x13 + 40 x10 * x14
   + 94 x10 * x15 - 20 x10 * x16 + 50 x10 * x17 - 96 x10 * x18
   - 70 x10 * x19 + 26 x10 * x20 + 96 x10 * x21 - 26 x10 * x22
   - 86 x10 * x23 - 72 x10 * x24 + 44 x10 * x25 - 26 x10 * x26
   - 16 x10 * x27 + 84 x10 * x28 - 80 x10 * x29 - 88 x10 * x30
   - 56 x10 * x31 + 94 x10 * x32 + 56 x10 * x33 - 88 x10 * x34
   + 72 x10 * x35 - 94 x10 * x36 - 68 x10 * x38 - 44 x10 * x39 + 21 x11 ^2
   + 44 x11 * x12 + 86 x11 * x13 + 26 x11 * x14 - 48 x11 * x15
   + 30 x11 * x16 - 28 x11 * x17 + 76 x11 * x18 + 84 x11 * x19
   + 60 x11 * x20 - 12 x11 * x21 + 52 x11 * x22 - 24 x11 * x23
   + 54 x11 * x24 + 24 x11 * x25 - 16 x11 * x26 - 62 x11 * x27
   + 78 x11 * x28 + 26 x11 * x29 - 76 x11 * x30 + 16 x11 * x31
   + 60 x11 * x32 + 42 x11 * x33 + 76 x11 * x34 + 12 x11 * x35
   + 98 x11 * x36 + 72 x11 * x37 - 48 x11 * x38 + 94 x11 * x39 + 9 x12 ^2
   - 2 x12 * x13 - 94 x12 * x14 - 82 x12 * x15 - 84 x12 * x16
   - 98 x12 * x17 + 4 x12 * x18 + 84 x12 * x19 - 16 x12 * x20
   + 26 x12 * x21 - 22 x12 * x22 + 26 x12 * x23 + 70 x12 * x24
   - 16 x12 * x25 + 34 x12 * x26 - 82 x12 * x27 + 6 x12 * x28
   + 94 x12 * x29 - 28 x12 * x30 - 74 x12 * x31 + 98 x12 * x32
   + 82 x12 * x33 - 54 x12 * x34 + 44 x12 * x35 + 46 x12 * x36
   + 4 x12 * x37 + 56 x12 * x38 + 48 x12 * x39 - 23 x13 ^2 - 46 x13 * x14
   + 74 x13 * x15 + 22 x13 * x16 + 36 x13 * x17 - 38 x13 * x18
   - 58 x13 * x19 + 10 x13 * x20 - 28 x13 * x21 + 64 x13 * x22
   - 50 x13 * x23 + 4 x13 * x24 + 76 x13 * x25 + 16 x13 * x26
   - 20 x13 * x27 + 32 x13 * x28 - 12 x13 * x29 + 98 x13 * x30
   - 58 x13 * x31 - 32 x13 * x32 - 80 x13 * x33 + 34 x13 * x34
   + 64 x13 * x35 + 26 x13 * x36 - 56 x13 * x37 - 98 x13 * x38
   - 60 x13 * x39 + 44 x14 ^2 - 78 x14 * x15 + 32 x14 * x16 - 82 x14 * x17
   - 26 x14 * x18 + 16 x14 * x19 + 76 x14 * x20 - 24 x14 * x21
   - 70 x14 * x22 - 42 x14 * x23 - 90 x14 * x24 - 70 x14 * x25
   - 78 x14 * x26 - 14 x14 * x27 + 56 x14 * x28 + 70 x14 * x29
   - 20 x14 * x30 + 44 x14 * x31 + 18 x14 * x32 + 18 x14 * x33
   + 98 x14 * x34 - 64 x14 * x35 - 60 x14 * x36 - 20 x14 * x37
   - 62 x14 * x38 + 62 x14 * x39 - 44 x15 ^2 + 24 x15 * x16 + 12 x15 * x17
   - 6 x15 * x18 + 50 x15 * x19 - 82 x15 * x20 + 60 x15 * x21
   - 16 x15 * x22 - 44 x15 * x23 - 48 x15 * x24 + 94 x15 * x25
   + 34 x15 * x26 - 98 x15 * x27 - 16 x15 * x28 - 58 x15 * x29
   - 94 x15 * x30 + 96 x15 * x31 + 60 x15 * x32 - 38 x15 * x33
   + 54 x15 * x34 + 66 x15 * x35 - 46 x15 * x36 - 82 x15 * x37
   - 90 x15 * x38 - 34 x15 * x39 + x16 ^2 + 96 x16 * x17 - 62 x16 * x18
   + 16 x16 * x19 + 70 x16 * x20 - 88 x16 * x21 - 46 x16 * x22
   + 10 x16 * x23 - 22 x16 * x24 + 68 x16 * x25 - 40 x16 * x26
   - 28 x16 * x27 - 12 x16 * x28 + 38 x16 * x29 + 62 x16 * x30
   + 96 x16 * x31 + 16 x16 * x32 + 70 x16 * x33 - 28 x16 * x34
   - 62 x16 * x35 + 28 x16 * x36 - 92 x16 * x38 + 96 x16 * x39 - 15 x17 ^2
   + 66 x17 * x18 + 84 x17 * x19 + 50 x17 * x20 + 16 x17 * x21
   + 56 x17 * x22 + 78 x17 * x23 - 74 x17 * x24 + 24 x17 * x25
   + 44 x17 * x26 - 82 x17 * x27 + 84 x17 * x28 - 8 x17 * x29
   - 92 x17 * x30 + 32 x17 * x31 - 26 x17 * x32 - 26 x17 * x33
   - 82 x17 * x34 - 18 x17 * x35 - 98 x17 * x36 - 92 x17 * x37
   + 52 x17 * x38 - 26 x17 * x39 + 9 x18 ^2 + 56 x18 * x19 + 56 x18 * x20
   - 88 x18 * x21 - 66 x18 * x22 + 16 x18 * x23 + 32 x18 * x24
   + 92 x18 * x25 + 4 x18 * x26 + 78 x18 * x27 - 98 x18 * x28
   + 88 x18 * x29 + 48 x18 * x30 - 74 x18 * x31 + 2 x18 * x32
   - 86 x18 * x33 - 94 x18 * x34 - 78 x18 * x35 - 4 x18 * x36
   - 40 x18 * x37 + 4 x18 * x38 - 54 x18 * x39 - 36 x19 ^2 + 76 x19 * x20
   + 80 x19 * x21 - 56 x19 * x22 - 2 x19 * x23 + 68 x19 * x24
   - 38 x19 * x25 - 26 x19 * x26 - 62 x19 * x27 - 40 x19 * x28
   + 22 x19 * x29 + 54 x19 * x30 + 52 x19 * x31 - 44 x19 * x32
   - 14 x19 * x33 - 68 x19 * x34 - 62 x19 * x35 - 30 x19 * x36
   - 86 x19 * x37 - 46 x19 * x38 - 2 x19 * x39 + 37 x20 ^2 - 76 x20 * x21
   + 54 x20 * x22 - 16 x20 * x23 - 82 x20 * x24 + 24 x20 * x25
   + 54 x20 * x26 - 12 x20 * x27 - 48 x20 * x28 - 80 x20 * x29
   + 46 x20 * x30 - 28 x20 * x31 + 86 x20 * x32 + 54 x20 * x33
   + 18 x20 * x34 + 46 x20 * x35 - 22 x20 * x36 + 2 x20 * x37
   + 20 x20 * x39 - 25 x21 ^2 - 58 x21 * x22 + 92 x21 * x23 + 82 x21 * x24
   + 92 x21 * x25 - 52 x21 * x26 + 2 x21 * x27 - 12 x21 * x28
   + 34 x21 * x29 + 82 x21 * x30 + 34 x21 * x31 + 64 x21 * x32
   - 26 x21 * x33 - 58 x21 * x34 + 90 x21 * x35 + 14 x21 * x36
   - 44 x21 * x37 - 40 x21 * x38 - 52 x21 * x39 - 8 x22 ^2 + 86 x22 * x23
   + 66 x22 * x24 + 6 x22 * x25 - 16 x22 * x26 + 54 x22 * x27
   - 10 x22 * x28 - 98 x22 * x29 + 14 x22 * x30 + 16 x22 * x31
   - 22 x22 * x32 - 12 x22 * x33 - 80 x22 * x34 - 64 x22 * x35
   - 28 x22 * x36 + 30 x22 * x37 - 2 x22 * x38 - 68 x22 * x39 + 37 x23 ^2
   + 46 x23 * x24 + 6 x23 * x25 + 46 x23 * x26 + 70 x23 * x27
   + 56 x23 * x28 + 78 x23 * x29 + 96 x23 * x30 - 32 x23 * x31
   + 56 x23 * x32 - 42 x23 * x33 - 52 x23 * x34 - 92 x23 * x35
   - 88 x23 * x36 + 10 x23 * x37 + 38 x23 * x38 + 28 x23 * x39 - 23 x24 ^2
   + 56 x24 * x25 - 22 x24 * x26 + 56 x24 * x27 - 12 x24 * x28
   - 74 x24 * x29 + 10 x24 * x30 - 74 x24 * x31 - 88 x24 * x32
   - 46 x24 * x33 - 62 x24 * x34 - 34 x24 * x35 + 14 x24 * x36
   - 92 x24 * x37 + 74 x24 * x38 + 16 x24 * x39 - 45 x25 ^2 - 26 x25 * x26
   - 72 x25 * x27 - 16 x25 * x28 - 86 x25 * x29 + 12 x25 * x30
   - 68 x25 * x31 + 76 x25 * x32 + 88 x25 * x33 - 34 x25 * x34
   + 84 x25 * x35 - 46 x25 * x36 + 8 x25 * x37 + 94 x25 * x38
   - 28 x25 * x39 + 5 x26 ^2 + 26 x26 * x27 + 26 x26 * x28 + 94 x26 * x29
   + 66 x26 * x30 + 84 x26 * x31 + 20 x26 * x32 + 82 x26 * x33
   + 40 x26 * x34 + 2 x26 * x35 + 22 x26 * x36 + 24 x26 * x37
   - 32 x26 * x38 - 16 x26 * x39 + 47 x27 ^2 - 16 x27 * x28 + 58 x27 * x29
   - 36 x27 * x30 + 76 x27 * x31 + 76 x27 * x32 + 24 x27 * x33
   - 42 x27 * x34 - 82 x27 * x35 - 94 x27 * x36 - 16 x27 * x37
   + 68 x27 * x38 - 60 x27 * x39 - 25 x28 ^2 + 6 x28 * x29 + 2 x28 * x30
   - 84 x28 * x31 + 74 x28 * x32 - 54 x28 * x33 + 56 x28 * x34
   - 98 x28 * x35 - 84 x28 * x36 + 74 x28 * x37 + 28 x28 * x38
   + 2 x28 * x39 + 35 x29 ^2 - 86 x29 * x30 - 12 x29 * x31 + 34 x29 * x32
   - 2 x29 * x33 + 82 x29 * x34 + 46 x29 * x35 + 6 x29 * x36 + 62 x29 * x37
   - 22 x29 * x38 + 42 x29 * x39 - 16 x30 ^2 + 8 x30 * x31 - 36 x30 * x32
   - 94 x30 * x33 - 50 x30 * x34 + 36 x30 * x35 - 56 x30 * x36
   - 98 x30 * x37 - 82 x30 * x38 + 46 x30 * x39 + 29 x31 ^2 + 82 x31 * x32
   - 64 x31 * x33 + 68 x31 * x34 + 66 x31 * x35 - 72 x31 * x36
   - 8 x31 * x37 - 92 x31 * x38 - 80 x31 * x39 - 4 x32 ^2 - 96 x32 * x33
   + 10 x32 * x34 + 48 x32 * x35 + 96 x32 * x36 - 10 x32 * x37
   - 48 x32 * x38 + 54 x32 * x39 - 22 x33 ^2 - 96 x33 * x34 - 90 x33 * x35
   + 42 x33 * x36 - 78 x33 * x37 + 56 x33 * x38 - 8 x33 * x39 + 42 x34 ^2
   + 36 x34 * x35 - 40 x34 * x36 - 50 x34 * x37 - 36 x34 * x38
   - 64 x34 * x39 - 7 x35 ^2 + 82 x35 * x36 + 60 x35 * x37 + 76 x35 * x38
   + 80 x35 * x39 - 36 x36 ^2 - 78 x36 * x37 - 92 x36 * x38 + 78 x36 * x39
   - 16 x37 ^2 + 96 x37 * x38 - 10 x37 * x39 + 9 x38 ^2 + 84 x38 * x39
   - 6 x39 ^2 ] / 2 
Subject To
Bounds
 x0 <= 1
 x1 <= 1
 x2 <= 1
 x3 <= 1
 x4 <= 1
 x5 <= 1
 x6 <= 1
 x7 <= 1
 x8 <= 1
 x9 <= 1
 x10 <= 1
 x11 <= 1
 x12 <= 1
 x13 <= 1
 x14 <= 1
 x15 <= 1
 x16 <= 1
 x17 <= 1
 x18 <= 1
 x19 <= 1
 x20 <= 1
 x21 <= 1
 x22 <= 1
 x23 <= 1
 x24 <= 1
 x25 <= 1
 x26 <= 1
 x27 <= 1
 x28 <= 1
 x29 <= 1
 x30 <= 1
 x31 <= 1
 x32 <= 1
 x33 <= 1
 x34 <= 1
 x35 <= 1
 x36 <= 1
 x37 <= 1
 x38 <= 1
 x39 <= 1
End
